SDVRP instances/custom_instances/p01_4_splitx10_0.vrp
NAME:p01_4_splitx10_
BEST_KNOWN: 0
COMMENT: 0
DIMENSION: 261
CAPACITY: 1600
EDGE_WEIGHT_FORMAT: FUNCTION
EDGE_WEIGHT_TYPE: EXACT_2D
NODE_COORD_SECTION
1 0.00000 0.00000
2 42 -34
3 42 -34
4 42 -34
5 42 -34
6 42 -34
7 -32 -11
8 -32 -11
9 -32 -11
10 -32 -11
11 -32 -11
12 -32 -11
13 -29 1
14 -29 1
15 -29 1
16 -29 1
17 32 42
18 32 42
19 32 42
20 32 42
21 32 42
22 32 42
23 32 42
24 -44 -1
25 -44 -1
26 -44 -1
27 -44 -1
28 -44 -1
29 -44 -1
30 -45 13
31 -45 13
32 -45 13
33 15 39
34 15 39
35 15 39
36 15 39
37 44 50
38 44 50
39 44 50
40 44 50
41 44 50
42 44 50
43 44 50
44 3 7
45 3 7
46 3 7
47 3 7
48 43 37
49 43 37
50 43 37
51 43 37
52 -33 -41
53 -33 -41
54 -33 -41
55 -33 -41
56 -33 -41
57 -33 -41
58 -33 -41
59 23 29
60 23 29
61 23 29
62 40 36
63 40 36
64 -34 45
65 -34 45
66 -34 45
67 -34 45
68 -34 45
69 27 -10
70 27 -10
71 27 -10
72 27 -10
73 27 -10
74 -23 -12
75 -23 -12
76 -23 -12
77 -23 -12
78 -23 -12
79 -24 -6
80 -24 -6
81 -24 -6
82 -24 -6
83 -24 -6
84 -24 -6
85 -24 -6
86 44 -34
87 44 -34
88 44 -34
89 44 -34
90 44 -34
91 44 -34
92 44 -34
93 -50 49
94 -50 49
95 -50 49
96 -50 49
97 -25 -19
98 -25 -19
99 -25 -19
100 -25 -19
101 -25 -19
102 -25 -19
103 -31 -6
104 -31 -6
105 -31 -6
106 -31 -6
107 -31 -6
108 -31 -6
109 40 26
110 40 26
111 40 26
112 40 26
113 -33 -1
114 -33 -1
115 -33 -1
116 -33 -1
117 -33 -1
118 -16 19
119 -16 19
120 -16 19
121 -16 19
122 -16 19
123 -16 19
124 -16 19
125 -16 19
126 32 6
127 32 6
128 32 6
129 32 6
130 32 6
131 32 6
132 25 8
133 25 8
134 25 8
135 25 8
136 25 8
137 25 8
138 -24 -34
139 -24 -34
140 -24 -34
141 -24 -34
142 36 -7
143 36 -7
144 36 -7
145 36 -7
146 36 -7
147 13 16
148 13 16
149 13 16
150 13 16
151 13 16
152 42 20
153 42 20
154 42 20
155 42 20
156 42 20
157 42 20
158 42 20
159 -9 -21
160 -9 -21
161 -9 -21
162 -5 2
163 -5 2
164 -5 2
165 -5 2
166 45 0
167 45 0
168 45 0
169 45 0
170 45 0
171 -26 -36
172 -26 -36
173 -26 -36
174 -26 -36
175 -26 -36
176 -26 -36
177 44 -37
178 44 -37
179 44 -37
180 44 -37
181 44 -37
182 44 -37
183 44 -37
184 44 -37
185 38 24
186 38 24
187 38 24
188 15 -8
189 15 -8
190 15 -8
191 15 -8
192 15 -8
193 15 -8
194 15 -8
195 26 21
196 26 21
197 26 21
198 26 21
199 26 21
200 -31 -28
201 -31 -28
202 -31 -28
203 -31 -28
204 -31 -28
205 -31 -28
206 -31 -28
207 -12 -46
208 -12 -46
209 -12 -46
210 -12 -46
211 -12 -46
212 10 -12
213 10 -12
214 10 -12
215 10 -12
216 10 -12
217 -44 3
218 -44 3
219 -44 3
220 -44 3
221 -44 3
222 -44 3
223 43 -37
224 43 -37
225 43 -37
226 19 -4
227 19 -4
228 19 -4
229 19 -4
230 19 -4
231 19 -4
232 19 -4
233 9 11
234 9 11
235 9 11
236 -44 2
237 -44 2
238 -44 2
239 -44 2
240 -36 -4
241 -36 -4
242 -36 -4
243 -36 -4
244 -36 -4
245 -36 -4
246 -15 -23
247 -15 -23
248 -15 -23
249 -15 -23
250 -15 -23
251 -15 -23
252 -15 -23
253 32 43
254 32 43
255 32 43
256 32 43
257 32 43
258 13 -23
259 13 -23
260 13 -23
261 13 -23
DEMAND_SECTION
1 0
2 320
3 160
4 16
5 16
6 8
7 160
8 80
9 16
10 16
11 16
12 2
13 160
14 80
15 16
16 14
17 320
18 320
19 16
20 16
21 16
22 16
23 6
24 320
25 320
26 16
27 16
28 16
29 12
30 320
31 16
32 4
33 160
34 16
35 16
36 8
37 160
38 80
39 16
40 16
41 16
42 16
43 6
44 160
45 80
46 16
47 14
48 320
49 160
50 16
51 14
52 320
53 160
54 80
55 16
56 16
57 16
58 12
59 320
60 320
61 80
62 320
63 320
64 320
65 16
66 16
67 16
68 12
69 320
70 80
71 16
72 16
73 8
74 320
75 320
76 80
77 16
78 14
79 320
80 320
81 80
82 16
83 16
84 16
85 2
86 320
87 80
88 16
89 16
90 16
91 16
92 6
93 320
94 80
95 16
96 4
97 320
98 160
99 16
100 16
101 16
102 2
103 320
104 80
105 16
106 16
107 16
108 2
109 320
110 160
111 80
112 10
113 320
114 320
115 80
116 16
117 14
118 320
119 160
120 80
121 16
122 16
123 16
124 16
125 6
126 320
127 320
128 16
129 16
130 16
131 2
132 320
133 160
134 16
135 16
136 16
137 2
138 320
139 160
140 16
141 14
142 320
143 16
144 16
145 16
146 2
147 320
148 320
149 80
150 16
151 4
152 320
153 320
154 16
155 16
156 16
157 16
158 6
159 320
160 160
161 80
162 320
163 80
164 16
165 14
166 320
167 160
168 16
169 16
170 8
171 160
172 80
173 16
174 16
175 16
176 12
177 320
178 320
179 80
180 16
181 16
182 16
183 16
184 6
185 320
186 80
187 10
188 320
189 320
190 16
191 16
192 16
193 16
194 6
195 160
196 80
197 16
198 16
199 8
200 320
201 320
202 80
203 16
204 16
205 16
206 2
207 320
208 320
209 80
210 16
211 14
212 320
213 160
214 16
215 16
216 8
217 320
218 16
219 16
220 16
221 16
222 6
223 160
224 80
225 10
226 160
227 80
228 16
229 16
230 16
231 16
232 6
233 320
234 160
235 10
236 320
237 160
238 16
239 14
240 160
241 80
242 16
243 16
244 16
245 2
246 320
247 160
248 80
249 16
250 16
251 16
252 12
253 320
254 160
255 80
256 16
257 14
258 320
259 320
260 80
261 10
DEPOT_SECTION
1
-1
EOF