SDVRP instances/custom_instances/p01_4_splitx10_0.sol
260 -7 10 9 8 11 6 107 103 106 102 104 105 81 80 79 82 78 84 83 -25 23 24 28 27 26 237 235 236 238 220 216 218 217 219 221 -31 29 30 92 95 94 93 67 65 64 66 63 124 123 117 -32 33 35 34 255 254 253 252 256 20 19 21 17 22 16 18 150 149 148 -46 45 44 43 147 146 233 234 232 -53 52 57 51 56 54 55 202 199 201 205 200 204 203 101 97 98 100 -60 58 59 194 198 195 197 196 131 135 134 133 136 132 -61 62 38 36 39 41 42 40 37 48 50 47 49 110 111 -96 99 74 77 73 76 75 161 164 162 163 -122 120 118 119 121 14 15 12 13 115 114 113 112 116 244 242 241 243 239 240 -130 125 127 128 126 129 165 166 168 167 169 143 142 144 141 145 228 -140 139 138 137 170 171 173 174 175 172 207 206 208 210 209 -152 155 157 153 151 154 156 108 109 186 185 184 -158 160 159 249 247 245 246 250 251 248 -187 260 259 258 257 213 215 211 214 212 -190 189 191 86 91 88 85 90 87 89 183 179 181 177 176 182 180 178 222 223 224 -193 188 192 5 1 4 3 2 68 69 72 70 71 226 227 230 231 225 229 0 





OBJ=
1615.325
BEST_KNOWN=
0.000